Maximize
  - 4.5807097251574 edge_0_2_0_0 - 2.3627228101576 edge_0_3_0_0
   - 2.9700785487178 edge_0_4_0_0 - 3.0291044797146 edge_0_5_0_0
   - 2.8038796592112 edge_0_8_0_0 - 4.1768294987804 edge_0_9_0_0
   - 1.4902296232636 edge_0_13_0_0 - 2.1305091051858 edge_0_15_0_0
   - 2.8151997744965 edge_0_17_0_0 - 4.6681094398268 edge_0_18_0_0
   + 1.244790332003175 edge_2_3_0_0 + 0.543798250764963 edge_2_4_0_0
   + 0.6275765104899672 edge_2_5_0_0 + 0.1363560323332676 edge_2_8_0_0
   + 0.1989069641967414 edge_2_9_0_0 + 0.4461116019846223 edge_2_10_0_0
   + 0.5600762825084811 edge_2_11_0_0 - 0.2072712496399943 edge_2_13_0_0
   - 0.78462795292232 edge_2_15_0_0 - 0.4489238979146146 edge_2_17_0_0
   + 0.87091594774504 edge_2_19_0_0 + 2.145806095730026 edge_3_2_0_0
   + 0.9418228106099329 edge_3_4_0_0 + 3.158828004870999 edge_3_5_0_0
   + 0.4019036514855934 edge_3_7_0_0 + 2.879069578736537 edge_3_8_0_0
   + 0.8568554407774996 edge_3_9_0_0 + 2.769403064370443 edge_3_10_0_0
   + 3.24629277229149 edge_3_11_0_0 - 0.0974511406491205 edge_3_12_0_0
   + 0.4552951555953508 edge_3_13_0_0 - 0.6312790635111399 edge_3_15_0_0
   - 1.099368248911392 edge_3_16_0_0 - 1.149853980510276 edge_3_17_0_0
   - 0.5859098047364296 edge_3_18_0_0 + 5.3996450082498 edge_3_19_0_0
   + 0.1640075280693961 edge_4_3_0_0 + 0.7773108495717992 edge_4_5_0_0
   - 0.1079168626688369 edge_4_8_0_0 - 0.2818340074329861 edge_4_9_0_0
   - 0.7501118190920212 edge_4_10_0_0 - 0.4509470184471127 edge_4_15_0_0
   - 0.304734205413546 edge_4_19_0_0 + 0.3385927358974746 edge_5_2_0_0
   + 0.6784087861668824 edge_5_3_0_0 + 3.493887905390297 edge_5_4_0_0
   - 0.00315841750246736 edge_5_7_0_0 + 1.464905393759757 edge_5_8_0_0
   + 0.9160173418125147 edge_5_9_0_0 + 0.8191875470406216 edge_5_10_0_0
   + 0.2984176254054851 edge_5_11_0_0 - 0.5208565927182432 edge_5_12_0_0
   - 0.0824830048133544 edge_5_13_0_0 - 0.1868936253652844 edge_5_15_0_0
   - 0.231493006446322 edge_5_17_0_0 - 0.1428036733584191 edge_5_18_0_0
   + 1.3860190020656 edge_5_19_0_0 + 0.5355972706472318 edge_8_2_0_0
   + 3.046585168759433 edge_8_3_0_0 + 1.52210744538416 edge_8_4_0_0
   + 1.28845169792451 edge_8_5_0_0 + 2.375311229485545 edge_8_7_0_0
   + 2.517246176573492 edge_8_9_0_0 + 1.002487443564956 edge_8_10_0_0
   + 0.7021921418321679 edge_8_11_0_0 + 0.2141598122478345 edge_8_12_0_0
   + 0.1627823790715162 edge_8_13_0_0 - 0.6704892891483003 edge_8_15_0_0
   - 0.4759902736689198 edge_8_17_0_0 + 0.4316996837203375 edge_8_18_0_0
   + 1.608367603019 edge_8_19_0_0 - 0.4864169124449435 edge_9_2_0_0
   + 0.9157467589239889 edge_9_3_0_0 + 0.1488348701427834 edge_9_4_0_0
   + 0.555845533089408 edge_9_5_0_0 + 0.8507895421196426 edge_9_7_0_0
   + 0.6131020230224483 edge_9_8_0_0 + 2.092034560553423 edge_9_10_0_0
   + 0.7985120976639968 edge_9_11_0_0 + 0.5281677073967874 edge_9_12_0_0
   - 0.0108477110142785 edge_9_13_0_0 - 0.4398727055008661 edge_9_15_0_0
   - 1.759264463458239 edge_9_16_0_0 - 0.3901232421128012 edge_9_17_0_0
   - 0.4656673413230579 edge_9_18_0_0 + 0.41746894990372 edge_9_19_0_0
   - 1.494184777272804 edge_10_5_0_0 - 1.061047958241045 edge_10_8_0_0
   - 0.5835283098957308 edge_10_9_0_0 - 0.5549437518322445 edge_10_11_0_0
   - 1.421684901454503 edge_11_4_0_0 - 1.545202244530204 edge_11_5_0_0
   - 1.150417516783057 edge_11_8_0_0 - 0.8887582075820876 edge_11_9_0_0
   + 0.3317992681111033 edge_11_10_0_0 + 0.2000411518816818 edge_11_12_0_0
   - 0.207017278047501 edge_11_13_0_0 - 0.4785527169378745 edge_11_15_0_0
   - 1.118659812259923 edge_11_16_0_0 - 0.8090344961915297 edge_11_17_0_0
   - 0.9799770748823721 edge_11_18_0_0 - 0.8988096375485034 edge_12_3_0_0
   - 1.14967659107642 edge_12_8_0_0 - 0.400403391797259 edge_12_10_0_0
   + 0.3019666435652601 edge_12_11_0_0 + 0.37619475850866 edge_12_13_0_0
   + 0.51509512296354 edge_12_15_0_0 - 0.454403703504509 edge_12_18_0_0
   + 0.7565746173307 edge_12_19_0_0 - 0.6768631414970091 edge_13_2_0_0
   - 0.3524867054353673 edge_13_3_0_0 - 0.3087183484385491 edge_13_5_0_0
   - 0.170789000979967 edge_13_8_0_0 - 0.2661799698974998 edge_13_9_0_0
   - 0.8520272401234164 edge_13_10_0_0 + 0.2235587160432034 edge_13_11_0_0
   + 0.5075210546556974 edge_13_12_0_0 - 0.1927507332526365 edge_13_14_0_0
   + 0.9065995671003 edge_13_15_0_0 - 0.3580885296938203 edge_13_16_0_0
   - 0.0869576699412444 edge_13_17_0_0 + 0.0158850120385643 edge_13_18_0_0
   + 1.1071273130642 edge_13_19_0_0 - 0.1388451265509471 edge_14_16_0_0
   - 0.5194089688354601 edge_15_2_0_0 - 0.69332508689136 edge_15_3_0_0
   - 0.8065485020431069 edge_15_4_0_0 - 0.5182424982044593 edge_15_5_0_0
   - 0.9772970694608 edge_15_7_0_0 - 0.5290723919018221 edge_15_8_0_0
   - 0.62721392473432 edge_15_9_0_0 + 0.1954869498132466 edge_15_10_0_0
   + 0.4052186502412754 edge_15_11_0_0 + 0.84944811525126 edge_15_12_0_0
   + 1.0090055103011 edge_15_13_0_0 + 3.2173066267353 edge_15_14_0_0
   + 0.836992579878 edge_15_16_0_0 + 2.791328354968898 edge_15_17_0_0
   + 2.6555196813376 edge_15_18_0_0 + 1.87207 edge_15_19_0_0
   + 0.5234085290697661 edge_16_17_0_0 - 0.8122533949391846 edge_17_3_0_0
   - 0.9373924752512467 edge_17_4_0_0 - 0.7343786838285591 edge_17_5_0_0
   - 0.9053815898347761 edge_17_8_0_0 - 0.4931003457855624 edge_17_9_0_0
   - 0.0591748834957134 edge_17_10_0_0 + 0.4944507710272081 edge_17_11_0_0
   + 0.4340546393816475 edge_17_13_0_0 + 1.001330458807631 edge_17_15_0_0
   + 0.0866867244126202 edge_17_16_0_0 + 2.765789796255402 edge_17_18_0_0
   - 0.2006538298565601 edge_17_19_0_0 - 1.127299797086008 edge_18_2_0_0
   - 0.4336967636391927 edge_18_3_0_0 - 0.2220526829933782 edge_18_4_0_0
   - 0.8930578374089265 edge_18_5_0_0 - 0.8072402539280419 edge_18_9_0_0
   - 0.6179741415631993 edge_18_10_0_0 + 0.1216147201583764 edge_18_11_0_0
   - 0.0509913201377028 edge_18_12_0_0 + 0.1461341923853479 edge_18_13_0_0
   + 0.2625205360450119 edge_18_14_0_0 + 2.226297442486775 edge_18_16_0_0
   + 2.916889669139698 edge_18_17_0_0 + 0.8321569001411599 edge_18_19_0_0
   - 1.164375035896293 edge_19_18_0_0
Subject To
 one_parent_1: = 1
 consume_one_flow_unit_1: = 1
 one_parent_2: edge_0_2_0_0 + edge_3_2_0_0 + edge_5_2_0_0 + edge_8_2_0_0
   + edge_9_2_0_0 + edge_13_2_0_0 + edge_15_2_0_0 + edge_18_2_0_0 = 1
 consume_one_flow_unit_2: flow_0_2_0_0 - flow_2_3_0_0 - flow_2_4_0_0
   - flow_2_5_0_0 - flow_2_8_0_0 - flow_2_9_0_0 - flow_2_10_0_0
   - flow_2_11_0_0 - flow_2_13_0_0 - flow_2_15_0_0 - flow_2_17_0_0
   - flow_2_19_0_0 + flow_3_2_0_0 + flow_5_2_0_0 + flow_8_2_0_0
   + flow_9_2_0_0 + flow_13_2_0_0 + flow_15_2_0_0 + flow_18_2_0_0 = 1
 one_parent_3: edge_0_3_0_0 + edge_2_3_0_0 + edge_4_3_0_0 + edge_5_3_0_0
   + edge_8_3_0_0 + edge_9_3_0_0 + edge_12_3_0_0 + edge_13_3_0_0
   + edge_15_3_0_0 + edge_17_3_0_0 + edge_18_3_0_0 = 1
 consume_one_flow_unit_3: flow_0_3_0_0 + flow_2_3_0_0 - flow_3_2_0_0
   - flow_3_4_0_0 - flow_3_5_0_0 - flow_3_7_0_0 - flow_3_8_0_0
   - flow_3_9_0_0 - flow_3_10_0_0 - flow_3_11_0_0 - flow_3_12_0_0
   - flow_3_13_0_0 - flow_3_15_0_0 - flow_3_16_0_0 - flow_3_17_0_0
   - flow_3_18_0_0 - flow_3_19_0_0 + flow_4_3_0_0 + flow_5_3_0_0
   + flow_8_3_0_0 + flow_9_3_0_0 + flow_12_3_0_0 + flow_13_3_0_0
   + flow_15_3_0_0 + flow_17_3_0_0 + flow_18_3_0_0 = 1
 one_parent_4: edge_0_4_0_0 + edge_2_4_0_0 + edge_3_4_0_0 + edge_5_4_0_0
   + edge_8_4_0_0 + edge_9_4_0_0 + edge_11_4_0_0 + edge_15_4_0_0
   + edge_17_4_0_0 + edge_18_4_0_0 = 1
 consume_one_flow_unit_4: flow_0_4_0_0 + flow_2_4_0_0 + flow_3_4_0_0
   - flow_4_3_0_0 - flow_4_5_0_0 - flow_4_8_0_0 - flow_4_9_0_0
   - flow_4_10_0_0 - flow_4_15_0_0 - flow_4_19_0_0 + flow_5_4_0_0
   + flow_8_4_0_0 + flow_9_4_0_0 + flow_11_4_0_0 + flow_15_4_0_0
   + flow_17_4_0_0 + flow_18_4_0_0 = 1
 one_parent_5: edge_0_5_0_0 + edge_2_5_0_0 + edge_3_5_0_0 + edge_4_5_0_0
   + edge_8_5_0_0 + edge_9_5_0_0 + edge_10_5_0_0 + edge_11_5_0_0
   + edge_13_5_0_0 + edge_15_5_0_0 + edge_17_5_0_0 + edge_18_5_0_0 = 1
 consume_one_flow_unit_5: flow_0_5_0_0 + flow_2_5_0_0 + flow_3_5_0_0
   + flow_4_5_0_0 - flow_5_2_0_0 - flow_5_3_0_0 - flow_5_4_0_0
   - flow_5_7_0_0 - flow_5_8_0_0 - flow_5_9_0_0 - flow_5_10_0_0
   - flow_5_11_0_0 - flow_5_12_0_0 - flow_5_13_0_0 - flow_5_15_0_0
   - flow_5_17_0_0 - flow_5_18_0_0 - flow_5_19_0_0 + flow_8_5_0_0
   + flow_9_5_0_0 + flow_10_5_0_0 + flow_11_5_0_0 + flow_13_5_0_0
   + flow_15_5_0_0 + flow_17_5_0_0 + flow_18_5_0_0 = 1
 one_parent_6: = 1
 consume_one_flow_unit_6: = 1
 one_parent_7: edge_3_7_0_0 + edge_5_7_0_0 + edge_8_7_0_0 + edge_9_7_0_0
   + edge_15_7_0_0 = 1
 consume_one_flow_unit_7: flow_3_7_0_0 + flow_5_7_0_0 + flow_8_7_0_0
   + flow_9_7_0_0 + flow_15_7_0_0 = 1
 one_parent_8: edge_0_8_0_0 + edge_2_8_0_0 + edge_3_8_0_0 + edge_4_8_0_0
   + edge_5_8_0_0 + edge_9_8_0_0 + edge_10_8_0_0 + edge_11_8_0_0
   + edge_12_8_0_0 + edge_13_8_0_0 + edge_15_8_0_0 + edge_17_8_0_0 = 1
 consume_one_flow_unit_8: flow_0_8_0_0 + flow_2_8_0_0 + flow_3_8_0_0
   + flow_4_8_0_0 + flow_5_8_0_0 - flow_8_2_0_0 - flow_8_3_0_0
   - flow_8_4_0_0 - flow_8_5_0_0 - flow_8_7_0_0 - flow_8_9_0_0
   - flow_8_10_0_0 - flow_8_11_0_0 - flow_8_12_0_0 - flow_8_13_0_0
   - flow_8_15_0_0 - flow_8_17_0_0 - flow_8_18_0_0 - flow_8_19_0_0
   + flow_9_8_0_0 + flow_10_8_0_0 + flow_11_8_0_0 + flow_12_8_0_0
   + flow_13_8_0_0 + flow_15_8_0_0 + flow_17_8_0_0 = 1
 one_parent_9: edge_0_9_0_0 + edge_2_9_0_0 + edge_3_9_0_0 + edge_4_9_0_0
   + edge_5_9_0_0 + edge_8_9_0_0 + edge_10_9_0_0 + edge_11_9_0_0
   + edge_13_9_0_0 + edge_15_9_0_0 + edge_17_9_0_0 + edge_18_9_0_0 = 1
 consume_one_flow_unit_9: flow_0_9_0_0 + flow_2_9_0_0 + flow_3_9_0_0
   + flow_4_9_0_0 + flow_5_9_0_0 + flow_8_9_0_0 - flow_9_2_0_0
   - flow_9_3_0_0 - flow_9_4_0_0 - flow_9_5_0_0 - flow_9_7_0_0
   - flow_9_8_0_0 - flow_9_10_0_0 - flow_9_11_0_0 - flow_9_12_0_0
   - flow_9_13_0_0 - flow_9_15_0_0 - flow_9_16_0_0 - flow_9_17_0_0
   - flow_9_18_0_0 - flow_9_19_0_0 + flow_10_9_0_0 + flow_11_9_0_0
   + flow_13_9_0_0 + flow_15_9_0_0 + flow_17_9_0_0 + flow_18_9_0_0 = 1
 one_parent_10: edge_2_10_0_0 + edge_3_10_0_0 + edge_4_10_0_0
   + edge_5_10_0_0 + edge_8_10_0_0 + edge_9_10_0_0 + edge_11_10_0_0
   + edge_12_10_0_0 + edge_13_10_0_0 + edge_15_10_0_0 + edge_17_10_0_0
   + edge_18_10_0_0 = 1
 consume_one_flow_unit_10: flow_2_10_0_0 + flow_3_10_0_0 + flow_4_10_0_0
   + flow_5_10_0_0 + flow_8_10_0_0 + flow_9_10_0_0 - flow_10_5_0_0
   - flow_10_8_0_0 - flow_10_9_0_0 - flow_10_11_0_0 + flow_11_10_0_0
   + flow_12_10_0_0 + flow_13_10_0_0 + flow_15_10_0_0 + flow_17_10_0_0
   + flow_18_10_0_0 = 1
 one_parent_11: edge_2_11_0_0 + edge_3_11_0_0 + edge_5_11_0_0
   + edge_8_11_0_0 + edge_9_11_0_0 + edge_10_11_0_0 + edge_12_11_0_0
   + edge_13_11_0_0 + edge_15_11_0_0 + edge_17_11_0_0 + edge_18_11_0_0 = 1
 consume_one_flow_unit_11: flow_2_11_0_0 + flow_3_11_0_0 + flow_5_11_0_0
   + flow_8_11_0_0 + flow_9_11_0_0 + flow_10_11_0_0 - flow_11_4_0_0
   - flow_11_5_0_0 - flow_11_8_0_0 - flow_11_9_0_0 - flow_11_10_0_0
   - flow_11_12_0_0 - flow_11_13_0_0 - flow_11_15_0_0 - flow_11_16_0_0
   - flow_11_17_0_0 - flow_11_18_0_0 + flow_12_11_0_0 + flow_13_11_0_0
   + flow_15_11_0_0 + flow_17_11_0_0 + flow_18_11_0_0 = 1
 one_parent_12: edge_3_12_0_0 + edge_5_12_0_0 + edge_8_12_0_0
   + edge_9_12_0_0 + edge_11_12_0_0 + edge_13_12_0_0 + edge_15_12_0_0
   + edge_18_12_0_0 = 1
 consume_one_flow_unit_12: flow_3_12_0_0 + flow_5_12_0_0 + flow_8_12_0_0
   + flow_9_12_0_0 + flow_11_12_0_0 - flow_12_3_0_0 - flow_12_8_0_0
   - flow_12_10_0_0 - flow_12_11_0_0 - flow_12_13_0_0 - flow_12_15_0_0
   - flow_12_18_0_0 - flow_12_19_0_0 + flow_13_12_0_0 + flow_15_12_0_0
   + flow_18_12_0_0 = 1
 one_parent_13: edge_0_13_0_0 + edge_2_13_0_0 + edge_3_13_0_0
   + edge_5_13_0_0 + edge_8_13_0_0 + edge_9_13_0_0 + edge_11_13_0_0
   + edge_12_13_0_0 + edge_15_13_0_0 + edge_17_13_0_0 + edge_18_13_0_0 = 1
 consume_one_flow_unit_13: flow_0_13_0_0 + flow_2_13_0_0 + flow_3_13_0_0
   + flow_5_13_0_0 + flow_8_13_0_0 + flow_9_13_0_0 + flow_11_13_0_0
   + flow_12_13_0_0 - flow_13_2_0_0 - flow_13_3_0_0 - flow_13_5_0_0
   - flow_13_8_0_0 - flow_13_9_0_0 - flow_13_10_0_0 - flow_13_11_0_0
   - flow_13_12_0_0 - flow_13_14_0_0 - flow_13_15_0_0 - flow_13_16_0_0
   - flow_13_17_0_0 - flow_13_18_0_0 - flow_13_19_0_0 + flow_15_13_0_0
   + flow_17_13_0_0 + flow_18_13_0_0 = 1
 one_parent_14: edge_13_14_0_0 + edge_15_14_0_0 + edge_18_14_0_0 = 1
 consume_one_flow_unit_14: flow_13_14_0_0 - flow_14_16_0_0 + flow_15_14_0_0
   + flow_18_14_0_0 = 1
 one_parent_15: edge_0_15_0_0 + edge_2_15_0_0 + edge_3_15_0_0
   + edge_4_15_0_0 + edge_5_15_0_0 + edge_8_15_0_0 + edge_9_15_0_0
   + edge_11_15_0_0 + edge_12_15_0_0 + edge_13_15_0_0 + edge_17_15_0_0 = 1
 consume_one_flow_unit_15: flow_0_15_0_0 + flow_2_15_0_0 + flow_3_15_0_0
   + flow_4_15_0_0 + flow_5_15_0_0 + flow_8_15_0_0 + flow_9_15_0_0
   + flow_11_15_0_0 + flow_12_15_0_0 + flow_13_15_0_0 - flow_15_2_0_0
   - flow_15_3_0_0 - flow_15_4_0_0 - flow_15_5_0_0 - flow_15_7_0_0
   - flow_15_8_0_0 - flow_15_9_0_0 - flow_15_10_0_0 - flow_15_11_0_0
   - flow_15_12_0_0 - flow_15_13_0_0 - flow_15_14_0_0 - flow_15_16_0_0
   - flow_15_17_0_0 - flow_15_18_0_0 - flow_15_19_0_0 + flow_17_15_0_0 = 1
 one_parent_16: edge_3_16_0_0 + edge_9_16_0_0 + edge_11_16_0_0
   + edge_13_16_0_0 + edge_14_16_0_0 + edge_15_16_0_0 + edge_17_16_0_0
   + edge_18_16_0_0 = 1
 consume_one_flow_unit_16: flow_3_16_0_0 + flow_9_16_0_0 + flow_11_16_0_0
   + flow_13_16_0_0 + flow_14_16_0_0 + flow_15_16_0_0 - flow_16_17_0_0
   + flow_17_16_0_0 + flow_18_16_0_0 = 1
 one_parent_17: edge_0_17_0_0 + edge_2_17_0_0 + edge_3_17_0_0
   + edge_5_17_0_0 + edge_8_17_0_0 + edge_9_17_0_0 + edge_11_17_0_0
   + edge_13_17_0_0 + edge_15_17_0_0 + edge_16_17_0_0 + edge_18_17_0_0 = 1
 consume_one_flow_unit_17: flow_0_17_0_0 + flow_2_17_0_0 + flow_3_17_0_0
   + flow_5_17_0_0 + flow_8_17_0_0 + flow_9_17_0_0 + flow_11_17_0_0
   + flow_13_17_0_0 + flow_15_17_0_0 + flow_16_17_0_0 - flow_17_3_0_0
   - flow_17_4_0_0 - flow_17_5_0_0 - flow_17_8_0_0 - flow_17_9_0_0
   - flow_17_10_0_0 - flow_17_11_0_0 - flow_17_13_0_0 - flow_17_15_0_0
   - flow_17_16_0_0 - flow_17_18_0_0 - flow_17_19_0_0 + flow_18_17_0_0 = 1
 one_parent_18: edge_0_18_0_0 + edge_3_18_0_0 + edge_5_18_0_0
   + edge_8_18_0_0 + edge_9_18_0_0 + edge_11_18_0_0 + edge_12_18_0_0
   + edge_13_18_0_0 + edge_15_18_0_0 + edge_17_18_0_0 + edge_19_18_0_0 = 1
 consume_one_flow_unit_18: flow_0_18_0_0 + flow_3_18_0_0 + flow_5_18_0_0
   + flow_8_18_0_0 + flow_9_18_0_0 + flow_11_18_0_0 + flow_12_18_0_0
   + flow_13_18_0_0 + flow_15_18_0_0 + flow_17_18_0_0 - flow_18_2_0_0
   - flow_18_3_0_0 - flow_18_4_0_0 - flow_18_5_0_0 - flow_18_9_0_0
   - flow_18_10_0_0 - flow_18_11_0_0 - flow_18_12_0_0 - flow_18_13_0_0
   - flow_18_14_0_0 - flow_18_16_0_0 - flow_18_17_0_0 - flow_18_19_0_0
   + flow_19_18_0_0 = 1
 one_parent_19: edge_2_19_0_0 + edge_3_19_0_0 + edge_4_19_0_0
   + edge_5_19_0_0 + edge_8_19_0_0 + edge_9_19_0_0 + edge_12_19_0_0
   + edge_13_19_0_0 + edge_15_19_0_0 + edge_17_19_0_0 + edge_18_19_0_0 = 1
 consume_one_flow_unit_19: flow_2_19_0_0 + flow_3_19_0_0 + flow_4_19_0_0
   + flow_5_19_0_0 + flow_8_19_0_0 + flow_9_19_0_0 + flow_12_19_0_0
   + flow_13_19_0_0 + flow_15_19_0_0 + flow_17_19_0_0 + flow_18_19_0_0
   - flow_19_18_0_0 = 1
 root_flow: flow_0_2_0_0 + flow_0_3_0_0 + flow_0_4_0_0 + flow_0_5_0_0
   + flow_0_8_0_0 + flow_0_9_0_0 + flow_0_13_0_0 + flow_0_15_0_0
   + flow_0_17_0_0 + flow_0_18_0_0 = 19
 inactive_no_flow_0_2_0_0: flow_0_2_0_0 - 1000 edge_0_2_0_0 <= 0
 inactive_no_flow_0_3_0_0: flow_0_3_0_0 - 1000 edge_0_3_0_0 <= 0
 inactive_no_flow_0_4_0_0: flow_0_4_0_0 - 1000 edge_0_4_0_0 <= 0
 inactive_no_flow_0_5_0_0: flow_0_5_0_0 - 1000 edge_0_5_0_0 <= 0
 inactive_no_flow_0_8_0_0: flow_0_8_0_0 - 1000 edge_0_8_0_0 <= 0
 inactive_no_flow_0_9_0_0: flow_0_9_0_0 - 1000 edge_0_9_0_0 <= 0
 inactive_no_flow_0_13_0_0: flow_0_13_0_0 - 1000 edge_0_13_0_0 <= 0
 inactive_no_flow_0_15_0_0: flow_0_15_0_0 - 1000 edge_0_15_0_0 <= 0
 inactive_no_flow_0_17_0_0: flow_0_17_0_0 - 1000 edge_0_17_0_0 <= 0
 inactive_no_flow_0_18_0_0: flow_0_18_0_0 - 1000 edge_0_18_0_0 <= 0
 inactive_no_flow_2_3_0_0: flow_2_3_0_0 - 1000 edge_2_3_0_0 <= 0
 inactive_no_flow_2_4_0_0: flow_2_4_0_0 - 1000 edge_2_4_0_0 <= 0
 inactive_no_flow_2_5_0_0: flow_2_5_0_0 - 1000 edge_2_5_0_0 <= 0
 inactive_no_flow_2_8_0_0: flow_2_8_0_0 - 1000 edge_2_8_0_0 <= 0
 inactive_no_flow_2_9_0_0: flow_2_9_0_0 - 1000 edge_2_9_0_0 <= 0
 inactive_no_flow_2_10_0_0: flow_2_10_0_0 - 1000 edge_2_10_0_0 <= 0
 inactive_no_flow_2_11_0_0: flow_2_11_0_0 - 1000 edge_2_11_0_0 <= 0
 inactive_no_flow_2_13_0_0: flow_2_13_0_0 - 1000 edge_2_13_0_0 <= 0
 inactive_no_flow_2_15_0_0: flow_2_15_0_0 - 1000 edge_2_15_0_0 <= 0
 inactive_no_flow_2_17_0_0: flow_2_17_0_0 - 1000 edge_2_17_0_0 <= 0
 inactive_no_flow_2_19_0_0: flow_2_19_0_0 - 1000 edge_2_19_0_0 <= 0
 inactive_no_flow_3_2_0_0: flow_3_2_0_0 - 1000 edge_3_2_0_0 <= 0
 inactive_no_flow_3_4_0_0: flow_3_4_0_0 - 1000 edge_3_4_0_0 <= 0
 inactive_no_flow_3_5_0_0: flow_3_5_0_0 - 1000 edge_3_5_0_0 <= 0
 inactive_no_flow_3_7_0_0: flow_3_7_0_0 - 1000 edge_3_7_0_0 <= 0
 inactive_no_flow_3_8_0_0: flow_3_8_0_0 - 1000 edge_3_8_0_0 <= 0
 inactive_no_flow_3_9_0_0: flow_3_9_0_0 - 1000 edge_3_9_0_0 <= 0
 inactive_no_flow_3_10_0_0: flow_3_10_0_0 - 1000 edge_3_10_0_0 <= 0
 inactive_no_flow_3_11_0_0: flow_3_11_0_0 - 1000 edge_3_11_0_0 <= 0
 inactive_no_flow_3_12_0_0: flow_3_12_0_0 - 1000 edge_3_12_0_0 <= 0
 inactive_no_flow_3_13_0_0: flow_3_13_0_0 - 1000 edge_3_13_0_0 <= 0
 inactive_no_flow_3_15_0_0: flow_3_15_0_0 - 1000 edge_3_15_0_0 <= 0
 inactive_no_flow_3_16_0_0: flow_3_16_0_0 - 1000 edge_3_16_0_0 <= 0
 inactive_no_flow_3_17_0_0: flow_3_17_0_0 - 1000 edge_3_17_0_0 <= 0
 inactive_no_flow_3_18_0_0: flow_3_18_0_0 - 1000 edge_3_18_0_0 <= 0
 inactive_no_flow_3_19_0_0: flow_3_19_0_0 - 1000 edge_3_19_0_0 <= 0
 inactive_no_flow_4_3_0_0: flow_4_3_0_0 - 1000 edge_4_3_0_0 <= 0
 inactive_no_flow_4_5_0_0: flow_4_5_0_0 - 1000 edge_4_5_0_0 <= 0
 inactive_no_flow_4_8_0_0: flow_4_8_0_0 - 1000 edge_4_8_0_0 <= 0
 inactive_no_flow_4_9_0_0: flow_4_9_0_0 - 1000 edge_4_9_0_0 <= 0
 inactive_no_flow_4_10_0_0: flow_4_10_0_0 - 1000 edge_4_10_0_0 <= 0
 inactive_no_flow_4_15_0_0: flow_4_15_0_0 - 1000 edge_4_15_0_0 <= 0
 inactive_no_flow_4_19_0_0: flow_4_19_0_0 - 1000 edge_4_19_0_0 <= 0
 inactive_no_flow_5_2_0_0: flow_5_2_0_0 - 1000 edge_5_2_0_0 <= 0
 inactive_no_flow_5_3_0_0: flow_5_3_0_0 - 1000 edge_5_3_0_0 <= 0
 inactive_no_flow_5_4_0_0: flow_5_4_0_0 - 1000 edge_5_4_0_0 <= 0
 inactive_no_flow_5_7_0_0: flow_5_7_0_0 - 1000 edge_5_7_0_0 <= 0
 inactive_no_flow_5_8_0_0: flow_5_8_0_0 - 1000 edge_5_8_0_0 <= 0
 inactive_no_flow_5_9_0_0: flow_5_9_0_0 - 1000 edge_5_9_0_0 <= 0
 inactive_no_flow_5_10_0_0: flow_5_10_0_0 - 1000 edge_5_10_0_0 <= 0
 inactive_no_flow_5_11_0_0: flow_5_11_0_0 - 1000 edge_5_11_0_0 <= 0
 inactive_no_flow_5_12_0_0: flow_5_12_0_0 - 1000 edge_5_12_0_0 <= 0
 inactive_no_flow_5_13_0_0: flow_5_13_0_0 - 1000 edge_5_13_0_0 <= 0
 inactive_no_flow_5_15_0_0: flow_5_15_0_0 - 1000 edge_5_15_0_0 <= 0
 inactive_no_flow_5_17_0_0: flow_5_17_0_0 - 1000 edge_5_17_0_0 <= 0
 inactive_no_flow_5_18_0_0: flow_5_18_0_0 - 1000 edge_5_18_0_0 <= 0
 inactive_no_flow_5_19_0_0: flow_5_19_0_0 - 1000 edge_5_19_0_0 <= 0
 inactive_no_flow_8_2_0_0: flow_8_2_0_0 - 1000 edge_8_2_0_0 <= 0
 inactive_no_flow_8_3_0_0: flow_8_3_0_0 - 1000 edge_8_3_0_0 <= 0
 inactive_no_flow_8_4_0_0: flow_8_4_0_0 - 1000 edge_8_4_0_0 <= 0
 inactive_no_flow_8_5_0_0: flow_8_5_0_0 - 1000 edge_8_5_0_0 <= 0
 inactive_no_flow_8_7_0_0: flow_8_7_0_0 - 1000 edge_8_7_0_0 <= 0
 inactive_no_flow_8_9_0_0: flow_8_9_0_0 - 1000 edge_8_9_0_0 <= 0
 inactive_no_flow_8_10_0_0: flow_8_10_0_0 - 1000 edge_8_10_0_0 <= 0
 inactive_no_flow_8_11_0_0: flow_8_11_0_0 - 1000 edge_8_11_0_0 <= 0
 inactive_no_flow_8_12_0_0: flow_8_12_0_0 - 1000 edge_8_12_0_0 <= 0
 inactive_no_flow_8_13_0_0: flow_8_13_0_0 - 1000 edge_8_13_0_0 <= 0
 inactive_no_flow_8_15_0_0: flow_8_15_0_0 - 1000 edge_8_15_0_0 <= 0
 inactive_no_flow_8_17_0_0: flow_8_17_0_0 - 1000 edge_8_17_0_0 <= 0
 inactive_no_flow_8_18_0_0: flow_8_18_0_0 - 1000 edge_8_18_0_0 <= 0
 inactive_no_flow_8_19_0_0: flow_8_19_0_0 - 1000 edge_8_19_0_0 <= 0
 inactive_no_flow_9_2_0_0: flow_9_2_0_0 - 1000 edge_9_2_0_0 <= 0
 inactive_no_flow_9_3_0_0: flow_9_3_0_0 - 1000 edge_9_3_0_0 <= 0
 inactive_no_flow_9_4_0_0: flow_9_4_0_0 - 1000 edge_9_4_0_0 <= 0
 inactive_no_flow_9_5_0_0: flow_9_5_0_0 - 1000 edge_9_5_0_0 <= 0
 inactive_no_flow_9_7_0_0: flow_9_7_0_0 - 1000 edge_9_7_0_0 <= 0
 inactive_no_flow_9_8_0_0: flow_9_8_0_0 - 1000 edge_9_8_0_0 <= 0
 inactive_no_flow_9_10_0_0: flow_9_10_0_0 - 1000 edge_9_10_0_0 <= 0
 inactive_no_flow_9_11_0_0: flow_9_11_0_0 - 1000 edge_9_11_0_0 <= 0
 inactive_no_flow_9_12_0_0: flow_9_12_0_0 - 1000 edge_9_12_0_0 <= 0
 inactive_no_flow_9_13_0_0: flow_9_13_0_0 - 1000 edge_9_13_0_0 <= 0
 inactive_no_flow_9_15_0_0: flow_9_15_0_0 - 1000 edge_9_15_0_0 <= 0
 inactive_no_flow_9_16_0_0: flow_9_16_0_0 - 1000 edge_9_16_0_0 <= 0
 inactive_no_flow_9_17_0_0: flow_9_17_0_0 - 1000 edge_9_17_0_0 <= 0
 inactive_no_flow_9_18_0_0: flow_9_18_0_0 - 1000 edge_9_18_0_0 <= 0
 inactive_no_flow_9_19_0_0: flow_9_19_0_0 - 1000 edge_9_19_0_0 <= 0
 inactive_no_flow_10_5_0_0: flow_10_5_0_0 - 1000 edge_10_5_0_0 <= 0
 inactive_no_flow_10_8_0_0: flow_10_8_0_0 - 1000 edge_10_8_0_0 <= 0
 inactive_no_flow_10_9_0_0: flow_10_9_0_0 - 1000 edge_10_9_0_0 <= 0
 inactive_no_flow_10_11_0_0: flow_10_11_0_0 - 1000 edge_10_11_0_0 <= 0
 inactive_no_flow_11_4_0_0: flow_11_4_0_0 - 1000 edge_11_4_0_0 <= 0
 inactive_no_flow_11_5_0_0: flow_11_5_0_0 - 1000 edge_11_5_0_0 <= 0
 inactive_no_flow_11_8_0_0: flow_11_8_0_0 - 1000 edge_11_8_0_0 <= 0
 inactive_no_flow_11_9_0_0: flow_11_9_0_0 - 1000 edge_11_9_0_0 <= 0
 inactive_no_flow_11_10_0_0: flow_11_10_0_0 - 1000 edge_11_10_0_0 <= 0
 inactive_no_flow_11_12_0_0: flow_11_12_0_0 - 1000 edge_11_12_0_0 <= 0
 inactive_no_flow_11_13_0_0: flow_11_13_0_0 - 1000 edge_11_13_0_0 <= 0
 inactive_no_flow_11_15_0_0: flow_11_15_0_0 - 1000 edge_11_15_0_0 <= 0
 inactive_no_flow_11_16_0_0: flow_11_16_0_0 - 1000 edge_11_16_0_0 <= 0
 inactive_no_flow_11_17_0_0: flow_11_17_0_0 - 1000 edge_11_17_0_0 <= 0
 inactive_no_flow_11_18_0_0: flow_11_18_0_0 - 1000 edge_11_18_0_0 <= 0
 inactive_no_flow_12_3_0_0: flow_12_3_0_0 - 1000 edge_12_3_0_0 <= 0
 inactive_no_flow_12_8_0_0: flow_12_8_0_0 - 1000 edge_12_8_0_0 <= 0
 inactive_no_flow_12_10_0_0: flow_12_10_0_0 - 1000 edge_12_10_0_0 <= 0
 inactive_no_flow_12_11_0_0: flow_12_11_0_0 - 1000 edge_12_11_0_0 <= 0
 inactive_no_flow_12_13_0_0: flow_12_13_0_0 - 1000 edge_12_13_0_0 <= 0
 inactive_no_flow_12_15_0_0: flow_12_15_0_0 - 1000 edge_12_15_0_0 <= 0
 inactive_no_flow_12_18_0_0: flow_12_18_0_0 - 1000 edge_12_18_0_0 <= 0
 inactive_no_flow_12_19_0_0: flow_12_19_0_0 - 1000 edge_12_19_0_0 <= 0
 inactive_no_flow_13_2_0_0: flow_13_2_0_0 - 1000 edge_13_2_0_0 <= 0
 inactive_no_flow_13_3_0_0: flow_13_3_0_0 - 1000 edge_13_3_0_0 <= 0
 inactive_no_flow_13_5_0_0: flow_13_5_0_0 - 1000 edge_13_5_0_0 <= 0
 inactive_no_flow_13_8_0_0: flow_13_8_0_0 - 1000 edge_13_8_0_0 <= 0
 inactive_no_flow_13_9_0_0: flow_13_9_0_0 - 1000 edge_13_9_0_0 <= 0
 inactive_no_flow_13_10_0_0: flow_13_10_0_0 - 1000 edge_13_10_0_0 <= 0
 inactive_no_flow_13_11_0_0: flow_13_11_0_0 - 1000 edge_13_11_0_0 <= 0
 inactive_no_flow_13_12_0_0: flow_13_12_0_0 - 1000 edge_13_12_0_0 <= 0
 inactive_no_flow_13_14_0_0: flow_13_14_0_0 - 1000 edge_13_14_0_0 <= 0
 inactive_no_flow_13_15_0_0: flow_13_15_0_0 - 1000 edge_13_15_0_0 <= 0
 inactive_no_flow_13_16_0_0: flow_13_16_0_0 - 1000 edge_13_16_0_0 <= 0
 inactive_no_flow_13_17_0_0: flow_13_17_0_0 - 1000 edge_13_17_0_0 <= 0
 inactive_no_flow_13_18_0_0: flow_13_18_0_0 - 1000 edge_13_18_0_0 <= 0
 inactive_no_flow_13_19_0_0: flow_13_19_0_0 - 1000 edge_13_19_0_0 <= 0
 inactive_no_flow_14_16_0_0: flow_14_16_0_0 - 1000 edge_14_16_0_0 <= 0
 inactive_no_flow_15_2_0_0: flow_15_2_0_0 - 1000 edge_15_2_0_0 <= 0
 inactive_no_flow_15_3_0_0: flow_15_3_0_0 - 1000 edge_15_3_0_0 <= 0
 inactive_no_flow_15_4_0_0: flow_15_4_0_0 - 1000 edge_15_4_0_0 <= 0
 inactive_no_flow_15_5_0_0: flow_15_5_0_0 - 1000 edge_15_5_0_0 <= 0
 inactive_no_flow_15_7_0_0: flow_15_7_0_0 - 1000 edge_15_7_0_0 <= 0
 inactive_no_flow_15_8_0_0: flow_15_8_0_0 - 1000 edge_15_8_0_0 <= 0
 inactive_no_flow_15_9_0_0: flow_15_9_0_0 - 1000 edge_15_9_0_0 <= 0
 inactive_no_flow_15_10_0_0: flow_15_10_0_0 - 1000 edge_15_10_0_0 <= 0
 inactive_no_flow_15_11_0_0: flow_15_11_0_0 - 1000 edge_15_11_0_0 <= 0
 inactive_no_flow_15_12_0_0: flow_15_12_0_0 - 1000 edge_15_12_0_0 <= 0
 inactive_no_flow_15_13_0_0: flow_15_13_0_0 - 1000 edge_15_13_0_0 <= 0
 inactive_no_flow_15_14_0_0: flow_15_14_0_0 - 1000 edge_15_14_0_0 <= 0
 inactive_no_flow_15_16_0_0: flow_15_16_0_0 - 1000 edge_15_16_0_0 <= 0
 inactive_no_flow_15_17_0_0: flow_15_17_0_0 - 1000 edge_15_17_0_0 <= 0
 inactive_no_flow_15_18_0_0: flow_15_18_0_0 - 1000 edge_15_18_0_0 <= 0
 inactive_no_flow_15_19_0_0: flow_15_19_0_0 - 1000 edge_15_19_0_0 <= 0
 inactive_no_flow_16_17_0_0: flow_16_17_0_0 - 1000 edge_16_17_0_0 <= 0
 inactive_no_flow_17_3_0_0: flow_17_3_0_0 - 1000 edge_17_3_0_0 <= 0
 inactive_no_flow_17_4_0_0: flow_17_4_0_0 - 1000 edge_17_4_0_0 <= 0
 inactive_no_flow_17_5_0_0: flow_17_5_0_0 - 1000 edge_17_5_0_0 <= 0
 inactive_no_flow_17_8_0_0: flow_17_8_0_0 - 1000 edge_17_8_0_0 <= 0
 inactive_no_flow_17_9_0_0: flow_17_9_0_0 - 1000 edge_17_9_0_0 <= 0
 inactive_no_flow_17_10_0_0: flow_17_10_0_0 - 1000 edge_17_10_0_0 <= 0
 inactive_no_flow_17_11_0_0: flow_17_11_0_0 - 1000 edge_17_11_0_0 <= 0
 inactive_no_flow_17_13_0_0: flow_17_13_0_0 - 1000 edge_17_13_0_0 <= 0
 inactive_no_flow_17_15_0_0: flow_17_15_0_0 - 1000 edge_17_15_0_0 <= 0
 inactive_no_flow_17_16_0_0: flow_17_16_0_0 - 1000 edge_17_16_0_0 <= 0
 inactive_no_flow_17_18_0_0: flow_17_18_0_0 - 1000 edge_17_18_0_0 <= 0
 inactive_no_flow_17_19_0_0: flow_17_19_0_0 - 1000 edge_17_19_0_0 <= 0
 inactive_no_flow_18_2_0_0: flow_18_2_0_0 - 1000 edge_18_2_0_0 <= 0
 inactive_no_flow_18_3_0_0: flow_18_3_0_0 - 1000 edge_18_3_0_0 <= 0
 inactive_no_flow_18_4_0_0: flow_18_4_0_0 - 1000 edge_18_4_0_0 <= 0
 inactive_no_flow_18_5_0_0: flow_18_5_0_0 - 1000 edge_18_5_0_0 <= 0
 inactive_no_flow_18_9_0_0: flow_18_9_0_0 - 1000 edge_18_9_0_0 <= 0
 inactive_no_flow_18_10_0_0: flow_18_10_0_0 - 1000 edge_18_10_0_0 <= 0
 inactive_no_flow_18_11_0_0: flow_18_11_0_0 - 1000 edge_18_11_0_0 <= 0
 inactive_no_flow_18_12_0_0: flow_18_12_0_0 - 1000 edge_18_12_0_0 <= 0
 inactive_no_flow_18_13_0_0: flow_18_13_0_0 - 1000 edge_18_13_0_0 <= 0
 inactive_no_flow_18_14_0_0: flow_18_14_0_0 - 1000 edge_18_14_0_0 <= 0
 inactive_no_flow_18_16_0_0: flow_18_16_0_0 - 1000 edge_18_16_0_0 <= 0
 inactive_no_flow_18_17_0_0: flow_18_17_0_0 - 1000 edge_18_17_0_0 <= 0
 inactive_no_flow_18_19_0_0: flow_18_19_0_0 - 1000 edge_18_19_0_0 <= 0
 inactive_no_flow_19_18_0_0: flow_19_18_0_0 - 1000 edge_19_18_0_0 <= 0
Bounds
Binaries
 edge_0_2_0_0 edge_0_3_0_0 edge_0_4_0_0 edge_0_5_0_0 edge_0_8_0_0
 edge_0_9_0_0 edge_0_13_0_0 edge_0_15_0_0 edge_0_17_0_0 edge_0_18_0_0
 edge_2_3_0_0 edge_2_4_0_0 edge_2_5_0_0 edge_2_8_0_0 edge_2_9_0_0
 edge_2_10_0_0 edge_2_11_0_0 edge_2_13_0_0 edge_2_15_0_0 edge_2_17_0_0
 edge_2_19_0_0 edge_3_2_0_0 edge_3_4_0_0 edge_3_5_0_0 edge_3_7_0_0
 edge_3_8_0_0 edge_3_9_0_0 edge_3_10_0_0 edge_3_11_0_0 edge_3_12_0_0
 edge_3_13_0_0 edge_3_15_0_0 edge_3_16_0_0 edge_3_17_0_0 edge_3_18_0_0
 edge_3_19_0_0 edge_4_3_0_0 edge_4_5_0_0 edge_4_8_0_0 edge_4_9_0_0
 edge_4_10_0_0 edge_4_15_0_0 edge_4_19_0_0 edge_5_2_0_0 edge_5_3_0_0
 edge_5_4_0_0 edge_5_7_0_0 edge_5_8_0_0 edge_5_9_0_0 edge_5_10_0_0
 edge_5_11_0_0 edge_5_12_0_0 edge_5_13_0_0 edge_5_15_0_0 edge_5_17_0_0
 edge_5_18_0_0 edge_5_19_0_0 edge_8_2_0_0 edge_8_3_0_0 edge_8_4_0_0
 edge_8_5_0_0 edge_8_7_0_0 edge_8_9_0_0 edge_8_10_0_0 edge_8_11_0_0
 edge_8_12_0_0 edge_8_13_0_0 edge_8_15_0_0 edge_8_17_0_0 edge_8_18_0_0
 edge_8_19_0_0 edge_9_2_0_0 edge_9_3_0_0 edge_9_4_0_0 edge_9_5_0_0
 edge_9_7_0_0 edge_9_8_0_0 edge_9_10_0_0 edge_9_11_0_0 edge_9_12_0_0
 edge_9_13_0_0 edge_9_15_0_0 edge_9_16_0_0 edge_9_17_0_0 edge_9_18_0_0
 edge_9_19_0_0 edge_10_5_0_0 edge_10_8_0_0 edge_10_9_0_0 edge_10_11_0_0
 edge_11_4_0_0 edge_11_5_0_0 edge_11_8_0_0 edge_11_9_0_0 edge_11_10_0_0
 edge_11_12_0_0 edge_11_13_0_0 edge_11_15_0_0 edge_11_16_0_0 edge_11_17_0_0
 edge_11_18_0_0 edge_12_3_0_0 edge_12_8_0_0 edge_12_10_0_0 edge_12_11_0_0
 edge_12_13_0_0 edge_12_15_0_0 edge_12_18_0_0 edge_12_19_0_0 edge_13_2_0_0
 edge_13_3_0_0 edge_13_5_0_0 edge_13_8_0_0 edge_13_9_0_0 edge_13_10_0_0
 edge_13_11_0_0 edge_13_12_0_0 edge_13_14_0_0 edge_13_15_0_0 edge_13_16_0_0
 edge_13_17_0_0 edge_13_18_0_0 edge_13_19_0_0 edge_14_16_0_0 edge_15_2_0_0
 edge_15_3_0_0 edge_15_4_0_0 edge_15_5_0_0 edge_15_7_0_0 edge_15_8_0_0
 edge_15_9_0_0 edge_15_10_0_0 edge_15_11_0_0 edge_15_12_0_0 edge_15_13_0_0
 edge_15_14_0_0 edge_15_16_0_0 edge_15_17_0_0 edge_15_18_0_0 edge_15_19_0_0
 edge_16_17_0_0 edge_17_3_0_0 edge_17_4_0_0 edge_17_5_0_0 edge_17_8_0_0
 edge_17_9_0_0 edge_17_10_0_0 edge_17_11_0_0 edge_17_13_0_0 edge_17_15_0_0
 edge_17_16_0_0 edge_17_18_0_0 edge_17_19_0_0 edge_18_2_0_0 edge_18_3_0_0
 edge_18_4_0_0 edge_18_5_0_0 edge_18_9_0_0 edge_18_10_0_0 edge_18_11_0_0
 edge_18_12_0_0 edge_18_13_0_0 edge_18_14_0_0 edge_18_16_0_0 edge_18_17_0_0
 edge_18_19_0_0 edge_19_18_0_0
End
